p cnf 10 20
x .2 8 10 .2 7 10 .2 6 10 .2 3 10 .2 1 10 .2 7 9 .2 6 9 .2 5 9 8 .2 7 8 .2 6 8 .2 5 8 .2 4 8 .2 5 7 6 .2 5 6 .2 3 6 .2 2 5 .2 1 5 .2 1 4 3 .2 1 3 2 .2 1 2 1 3 7 8 10 1 0
x .2 8 10 .2 7 10 .2 6 10 .2 5 10 .2 4 10 .2 2 10 9 .2 8 9 .2 7 9 8 .2 6 8 .2 5 8 .2 4 8 .2 3 8 .2 1 8 .2 6 7 .2 5 7 .2 4 7 .2 5 6 .2 4 6 .2 1 6 5 .2 4 5 .2 3 5 .2 2 3 3 4 6 8 1 0
x 10 .2 7 10 .2 5 10 .2 4 10 .2 3 10 .2 8 9 .2 5 9 .2 4 9 .2 2 9 .2 1 9 .2 7 8 .2 5 8 .2 4 8 .2 2 8 .2 6 7 .2 4 7 6 5 .2 4 5 .2 2 5 .2 2 4 .2 1 4 3 .2 2 3 2 .2 1 2 1 2 3 4 6 10 0
x .2 7 10 .2 6 10 .2 4 10 .2 2 10 .2 1 10 .2 8 9 .2 6 9 .2 5 9 .2 4 9 .2 2 9 .2 6 8 .2 4 8 7 .2 4 7 .2 2 7 .2 5 6 .2 4 6 .2 3 6 .2 1 6 5 .2 1 5 .2 3 4 .2 2 4 .2 1 4 .2 1 3 .2 1 2 2 3 4 5 7 8 9 10 0
x 10 .2 9 10 .2 8 10 .2 4 10 .2 3 10 .2 1 10 .2 6 9 .2 5 9 .2 4 9 .2 2 9 8 .2 6 8 .2 3 8 .2 6 7 .2 4 7 .2 1 7 6 5 .2 3 5 .2 1 5 4 2 1 3 4 5 6 9 10 0
x .2 9 10 .2 8 10 .2 7 10 .2 5 10 .2 4 10 .2 1 10 9 .2 7 9 .2 5 9 .2 4 9 .2 1 9 .2 6 8 .2 5 8 .2 4 8 7 .2 6 7 .2 4 7 .2 3 7 .2 2 7 6 .2 2 6 .2 1 6 5 .2 4 5 4 3 .2 1 3 .2 1 2 1 2 4 5 6 8 9 0
x .2 9 10 .2 8 10 .2 7 10 .2 6 10 .2 5 10 .2 4 10 .2 3 10 .2 2 10 9 .2 8 9 .2 7 9 .2 6 9 .2 4 9 .2 3 9 8 .2 7 8 .2 3 8 7 .2 6 7 .2 4 7 .2 1 7 .2 5 6 .2 4 6 .2 2 6 .2 1 6 .2 3 5 .2 2 5 .2 1 5 .2 3 4 .2 1 4 .2 2 3 .2 1 3 2 4 10 1 0
x .2 8 10 .2 7 10 .2 6 10 .2 5 10 .2 4 10 .2 3 10 9 .2 8 9 .2 5 9 .2 4 9 .2 3 9 .2 2 9 .2 1 9 .2 7 8 .2 6 8 .2 5 8 .2 4 8 .2 1 8 7 .2 5 7 .2 3 7 6 .2 4 5 .2 3 5 .2 2 5 .2 1 5 .2 1 4 .2 2 3 .2 1 3 1 4 5 6 7 9 1 0
x .2 9 10 .2 6 10 .2 3 10 .2 8 9 .2 7 9 .2 6 9 .2 4 9 .2 3 9 8 .2 7 8 .2 6 8 .2 5 8 .2 4 8 .2 3 8 .2 2 8 7 .2 6 7 .2 5 7 .2 3 7 .2 2 7 .2 4 5 4 .2 1 4 .2 1 3 .2 1 2 1 3 7 8 10 0
x 10 .2 9 10 .2 8 10 .2 5 10 .2 3 10 .2 1 10 9 .2 8 9 .2 7 9 .2 5 9 .2 4 9 .2 2 9 .2 4 8 .2 2 8 .2 4 7 .2 1 7 6 .2 5 6 .2 2 6 5 .2 3 5 .2 2 5 .2 1 5 4 .2 3 4 1 3 7 9 0
x .2 7 10 .2 4 10 .2 3 10 .2 2 10 .2 1 10 .2 7 9 .2 6 9 .2 5 9 .2 3 9 .2 1 9 8 .2 7 8 .2 6 8 .2 4 8 .2 3 8 .2 2 8 7 .2 4 7 .2 3 7 .2 1 7 6 .2 5 6 .2 2 6 .2 1 6 5 .2 4 5 .2 3 5 4 3 .2 1 3 2 1 5 10 1 0
x 10 .2 6 10 .2 5 10 .2 4 10 .2 3 10 .2 2 10 .2 1 10 .2 7 9 .2 2 9 .2 1 9 8 .2 6 8 .2 1 8 7 .2 5 7 .2 4 7 6 .2 4 6 .2 3 6 .2 2 6 .2 1 6 5 .2 3 5 .2 1 5 4 .2 3 4 .2 1 4 3 2 .2 1 2 2 3 6 7 9 10 0
x 10 .2 9 10 .2 8 10 .2 3 10 .2 2 10 .2 1 10 .2 4 9 .2 7 8 .2 4 8 .2 3 8 .2 2 8 .2 1 8 .2 5 7 .2 3 7 6 .2 5 6 .2 1 6 5 .2 4 5 .2 3 5 .2 2 5 .2 3 4 .2 2 4 .2 2 3 .2 1 3 2 .2 1 2 2 5 8 1 0
x 10 .2 9 10 .2 7 10 .2 6 10 .2 3 10 .2 1 10 .2 8 9 .2 5 9 .2 3 9 .2 1 9 8 .2 7 8 .2 6 8 .2 3 8 .2 2 8 .2 1 8 .2 6 7 .2 3 7 .2 2 7 .2 1 7 6 .2 3 6 5 .2 4 5 4 .2 3 4 .2 2 4 .2 1 4 3 .2 2 3 .2 1 3 2 1 2 3 4 5 8 1 0
x 10 .2 9 10 .2 7 10 .2 5 10 .2 4 10 .2 2 10 .2 1 10 .2 3 9 .2 2 9 .2 1 9 .2 7 8 .2 6 8 .2 5 8 .2 3 8 .2 2 8 .2 5 7 .2 3 7 .2 5 6 .2 4 6 .2 1 6 5 .2 4 5 .2 1 5 .2 2 4 .2 1 4 3 .2 2 3 .2 1 3 .2 1 2 1 5 7 10 1 0
x .2 8 10 .2 6 10 .2 4 10 .2 3 10 .2 2 10 9 .2 6 9 .2 5 9 .2 1 9 8 .2 7 8 .2 6 8 .2 4 8 .2 3 8 .2 2 8 .2 1 8 7 .2 4 7 .2 2 7 .2 1 7 .2 5 6 .2 3 6 5 .2 4 5 .2 2 5 .2 1 5 .2 2 4 .2 2 3 .2 1 3 6 10 1 0
x 10 .2 8 10 .2 7 10 .2 4 10 .2 2 10 .2 1 10 9 .2 3 9 .2 6 8 .2 3 8 .2 1 8 7 .2 5 7 .2 4 7 .2 3 7 .2 1 7 .2 4 6 .2 3 6 .2 2 6 5 .2 1 4 3 .2 2 3 .2 1 3 2 .2 1 2 1 3 4 6 10 0
x 10 .2 8 10 .2 3 10 .2 2 10 .2 6 9 .2 5 9 .2 3 9 .2 2 9 .2 1 9 .2 7 8 .2 6 8 .2 4 8 .2 3 8 7 .2 4 6 .2 2 6 5 .2 4 5 .2 2 5 .2 1 5 .2 3 4 .2 2 4 .2 1 4 3 .2 2 3 2 1 2 3 7 8 10 0
x 10 .2 9 10 .2 8 10 .2 5 10 .2 3 10 .2 2 10 .2 1 10 .2 8 9 .2 7 9 .2 6 9 .2 5 9 .2 4 9 .2 3 9 .2 7 8 .2 2 8 .2 1 8 .2 6 7 .2 5 7 .2 3 7 .2 1 7 .2 4 6 .2 3 6 .2 2 6 .2 1 6 .2 2 5 4 .2 3 4 .2 1 3 2 1 3 5 6 8 9 1 0
x 10 .2 5 10 .2 4 10 .2 2 10 .2 7 9 .2 6 9 .2 5 9 8 .2 7 8 .2 6 8 .2 5 8 .2 2 8 7 .2 6 7 .2 5 7 .2 3 7 6 .2 5 6 .2 4 6 .2 2 6 .2 4 5 .2 2 5 .2 1 4 .2 1 3 .2 1 2 1 1 4 7 9 0
